8
0 125 226 50 187 600 646 167
125 0 7 406 151 143 409 16
226 7 0 22 110 73 9 398
50 406 22 0 286 563 702 33
187 151 110 286 0 117 34 406
600 143 73 563 117 0 95 299
646 409 9 702 34 95 0 90
167 16 398 33 406 299 90 0